analyze/results_flowersnark/final_miplib_symretope_if_extended_generating_set_cpx_v802__settings_final_nosym_norestarts__0__neos-777800.mps.gz.sol
solution status: optimal solution found
objective value:                                  -80
x#80#52                                             1 	(obj:-1)
x#79#3                                              1 	(obj:-1)
x#78#9                                              1 	(obj:-1)
x#77#18                                             1 	(obj:-1)
x#76#62                                             1 	(obj:-1)
x#75#40                                             1 	(obj:-1)
x#74#48                                             1 	(obj:-1)
x#73#67                                             1 	(obj:-1)
x#72#21                                             1 	(obj:-1)
x#71#34                                             1 	(obj:-1)
x#70#39                                             1 	(obj:-1)
x#69#75                                             1 	(obj:-1)
x#68#6                                              1 	(obj:-1)
x#67#54                                             1 	(obj:-1)
x#66#46                                             1 	(obj:-1)
x#65#12                                             1 	(obj:-1)
x#64#32                                             1 	(obj:-1)
x#63#53                                             1 	(obj:-1)
x#62#2                                              1 	(obj:-1)
x#61#66                                             1 	(obj:-1)
x#60#10                                             1 	(obj:-1)
x#59#44                                             1 	(obj:-1)
x#58#42                                             1 	(obj:-1)
x#57#76                                             1 	(obj:-1)
x#56#23                                             1 	(obj:-1)
x#55#68                                             1 	(obj:-1)
x#54#56                                             1 	(obj:-1)
x#53#78                                             1 	(obj:-1)
x#52#7                                              1 	(obj:-1)
x#51#33                                             1 	(obj:-1)
x#50#64                                             1 	(obj:-1)
x#49#79                                             1 	(obj:-1)
x#48#63                                             1 	(obj:-1)
x#47#71                                             1 	(obj:-1)
x#46#17                                             1 	(obj:-1)
x#45#22                                             1 	(obj:-1)
x#44#36                                             1 	(obj:-1)
x#43#26                                             1 	(obj:-1)
x#42#43                                             1 	(obj:-1)
x#41#58                                             1 	(obj:-1)
x#40#77                                             1 	(obj:-1)
x#39#51                                             1 	(obj:-1)
x#38#16                                             1 	(obj:-1)
x#37#60                                             1 	(obj:-1)
x#36#47                                             1 	(obj:-1)
x#35#8                                              1 	(obj:-1)
x#34#38                                             1 	(obj:-1)
x#33#59                                             1 	(obj:-1)
x#32#30                                             1 	(obj:-1)
x#31#70                                             1 	(obj:-1)
x#30#27                                             1 	(obj:-1)
x#29#29                                             1 	(obj:-1)
x#28#74                                             1 	(obj:-1)
x#27#61                                             1 	(obj:-1)
x#26#19                                             1 	(obj:-1)
x#25#1                                              1 	(obj:-1)
x#24#5                                              1 	(obj:-1)
x#23#50                                             1 	(obj:-1)
x#22#11                                             1 	(obj:-1)
x#21#20                                             1 	(obj:-1)
x#20#15                                             1 	(obj:-1)
x#19#37                                             1 	(obj:-1)
x#18#28                                             1 	(obj:-1)
x#17#49                                             1 	(obj:-1)
x#16#73                                             1 	(obj:-1)
x#15#24                                             1 	(obj:-1)
x#14#72                                             1 	(obj:-1)
x#13#65                                             1 	(obj:-1)
x#12#41                                             1 	(obj:-1)
x#11#31                                             1 	(obj:-1)
x#10#55                                             1 	(obj:-1)
x#9#25                                              1 	(obj:-1)
x#8#4                                               1 	(obj:-1)
x#7#14                                              1 	(obj:-1)
x#6#69                                              1 	(obj:-1)
x#5#13                                              1 	(obj:-1)
x#4#45                                              1 	(obj:-1)
x#3#57                                              1 	(obj:-1)
x#2#35                                              1 	(obj:-1)
x#1#80                                              1 	(obj:-1)
