analyze/results_flowersnark/final_miplib_symretope_if_extended_generating_set_cpx_v802__settings_final_nosym_norestarts__0__neos-777800.mps.gz.out
FILENAME:   /home/mcs001/s132664/testsets/IP/miplib2010/neos-777800.mps.gz
SETTINGS:   settings_final_nosym_norestarts
TIMELIMIT:  7200
OUTPUTNAME: final_miplib_symretope_if_extended_generating_set_cpx_v802__settings_final_nosym_norestarts__0__
BINNAME:    bin/sbcs.linux.x86_64.gnu.opt.cpx
BASENAME:   neos-777800.mps.gz
SEED:       0
@01 /home/mcs001/s132664/testsets/IP/miplib2010/neos-777800.mps.gz ===========
@02 neos-777800.mps.gz
@03 1686649154
SCIP version 8.0.2 [precision: 8 byte] [memory: block] [mode: optimized] [LP solver: CPLEX 20.1.0.0] [GitHash: 5f0473c]
Copyright (C) 2002-2022 Konrad-Zuse-Zentrum fuer Informationstechnik Berlin (ZIB)

Symretope propagation methods - (c) Jasper van Doornmalen, Christopher Hojny.
[GitHash: 2fd0484]

reading parameter file <../settings/settings_final_nosym_norestarts.set> ...

Changed settings:
limits/time = 7200
limits/restarts = 0
misc/usesymmetry = 0
constraints/orbisack/sepafreq = -1
constraints/symresack/sepafreq = -1
propagating/symmetry/detectsubgroups = FALSE
propagating/symmetry/usesymretopes = FALSE
propagating/symmetry/relabelsymretopes = 0
propagating/symmetry/ofsymcomptiming = 0
constraints/symretope/sepafreq = -1
constraints/symretope/peek = FALSE


solving problem ...

original problem has 6400 variables (0 bin, 6400 int, 0 impl, 0 cont) and 479 constraints
presolving:
(round 1, fast)       0 del vars, 4 del conss, 0 add conss, 0 chg bounds, 0 chg sides, 0 chg coeffs, 0 upgd conss, 0 impls, 474 clqs
(round 2, exhaustive) 0 del vars, 4 del conss, 0 add conss, 0 chg bounds, 0 chg sides, 0 chg coeffs, 474 upgd conss, 0 impls, 474 clqs
   (0.1s) probing: 51/6400 (0.8%) - 0 fixings, 0 aggregations, 0 implications, 0 bound changes
   (0.1s) probing aborted: 50/50 successive totally useless probings
presolving (3 rounds: 3 fast, 2 medium, 2 exhaustive):
 0 deleted vars, 4 deleted constraints, 0 added constraints, 0 tightened bounds, 0 added holes, 0 changed sides, 0 changed coefficients
 0 implications, 474 cliques
presolved problem has 6400 variables (6400 bin, 0 int, 0 impl, 0 cont) and 475 constraints
    474 constraints of type <setppc>
      1 constraints of type <linear>
transformed objective value is always integral (scale: 1)
Presolving Time: 0.11

 time | node  | left  |LP iter|LP it/n|mem/heur|mdpt |vars |cons |rows |cuts |sepa|confs|strbr|  dualbound   | primalbound  |  gap   | compl. 
  0.4s|     1 |     0 |   141 |     - |    55M |   0 |6400 | 478 | 475 |   0 |  0 |  11 |   0 |-8.000000e+01 |      --      |    Inf | unknown
  1.2s|     1 |     0 |  5007 |     - |    58M |   0 |6400 | 478 | 476 |   1 |  1 |  11 |   0 |-8.000000e+01 |      --      |    Inf | unknown
  1.3s|     1 |     0 |  5104 |     - |    58M |   0 |6400 | 478 | 478 |   3 |  3 |  11 |   0 |-8.000000e+01 |      --      |    Inf | unknown
  1.4s|     1 |     0 |  5175 |     - |    58M |   0 |6400 | 478 | 480 |   5 |  5 |  11 |   0 |-8.000000e+01 |      --      |    Inf | unknown
  1.4s|     1 |     0 |  5223 |     - |    58M |   0 |6400 | 478 | 481 |   6 |  6 |  11 |   0 |-8.000000e+01 |      --      |    Inf | unknown
  1.5s|     1 |     0 |  5278 |     - |    58M |   0 |6400 | 478 | 483 |   8 |  7 |  11 |   0 |-8.000000e+01 |      --      |    Inf | unknown
  1.5s|     1 |     0 |  5308 |     - |    58M |   0 |6400 | 478 | 484 |   9 |  8 |  11 |   0 |-8.000000e+01 |      --      |    Inf | unknown
  1.6s|     1 |     0 |  5326 |     - |    58M |   0 |6400 | 478 | 485 |  10 |  9 |  11 |   0 |-8.000000e+01 |      --      |    Inf | unknown
  1.7s|     1 |     0 |  5411 |     - |    58M |   0 |6400 | 478 | 487 |  12 | 10 |  11 |   0 |-8.000000e+01 |      --      |    Inf | unknown
  1.7s|     1 |     0 |  5442 |     - |    58M |   0 |6400 | 478 | 488 |  13 | 11 |  11 |   0 |-8.000000e+01 |      --      |    Inf | unknown
  4.5s|     1 |     2 |  9182 |     - |    58M |   0 |6400 | 478 | 488 |  13 | 11 |  11 |  63 |-8.000000e+01 |      --      |    Inf | unknown
* 9.3s|    78 |     0 | 15885 | 135.6 |    LP  |  64 |6400 | 478 | 486 |  33 |  1 |  11 |  63 |-8.000000e+01 |-8.000000e+01 |   0.00%| 100.00%

SCIP Status        : problem is solved [optimal solution found]
Solving Time (sec) : 9.32
Solving Nodes      : 78
Primal Bound       : -8.00000000000000e+01 (1 solutions)
Dual Bound         : -8.00000000000000e+01
Gap                : 0.00 %
SCIP Status        : problem is solved [optimal solution found]
Total Time         :       9.35
  solving          :       9.32
  presolving       :       0.11 (included in solving)
  reading          :       0.03
  copying          :       0.07 (7 #copies) (minimal 0.01, maximal 0.01, average 0.01)
Original Problem   :
  Problem name     : neos-777800
  Variables        : 6400 (0 binary, 6400 integer, 0 implicit integer, 0 continuous)
  Constraints      : 479 initial, 479 maximal
  Objective        : minimize, 6400 non-zeros (abs.min = 1, abs.max = 1)
Presolved Problem  :
  Problem name     : t_neos-777800
  Variables        : 6400 (6400 binary, 0 integer, 0 implicit integer, 0 continuous)
  Constraints      : 475 initial, 484 maximal
  Objective        : minimize, 0 non-zeros (abs.min = 1e+20, abs.max = -1e+20)
  Nonzeros         : 31996 constraint, 25596 clique table
Presolvers         :   ExecTime  SetupTime  Calls  FixedVars   AggrVars   ChgTypes  ChgBounds   AddHoles    DelCons    AddCons   ChgSides   ChgCoefs
  boundshift       :       0.00       0.00      0          0          0          0          0          0          0          0          0          0
  convertinttobin  :       0.00       0.00      0          0          0          0          0          0          0          0          0          0
  domcol           :       0.02       0.00      1          0          0          0          0          0          0          0          0          0
  dualagg          :       0.00       0.00      0          0          0          0          0          0          0          0          0          0
  dualcomp         :       0.00       0.00      0          0          0          0          0          0          0          0          0          0
  dualinfer        :       0.00       0.00      0          0          0          0          0          0          0          0          0          0
  dualsparsify     :       0.01       0.00      1          0          0          0          0          0          0          0          0          0
  gateextraction   :       0.00       0.00      0          0          0          0          0          0          0          0          0          0
  implics          :       0.00       0.00      2          0          0          0          0          0          0          0          0          0
  inttobinary      :       0.00       0.00      0          0          0          0          0          0          0          0          0          0
  qpkktref         :       0.00       0.00      0          0          0          0          0          0          0          0          0          0
  redvub           :       0.00       0.00      0          0          0          0          0          0          0          0          0          0
  sparsify         :       0.00       0.00      1          0          0          0          0          0          0          0          0          0
  stuffing         :       0.00       0.00      0          0          0          0          0          0          0          0          0          0
  trivial          :       0.00       0.00      3          0          0          0          0          0          0          0          0          0
  tworowbnd        :       0.00       0.00      0          0          0          0          0          0          0          0          0          0
  dualfix          :       0.00       0.00      3          0          0          0          0          0          0          0          0          0
  genvbounds       :       0.00       0.00      0          0          0          0          0          0          0          0          0          0
  probing          :       0.03       0.00      1          0          0          0          0          0          0          0          0          0
  pseudoobj        :       0.00       0.00      0          0          0          0          0          0          0          0          0          0
  symmetry         :       0.00       0.00      0          0          0          0          0          0          0          0          0          0
  vbounds          :       0.00       0.00      1          0          0          0          0          0          0          0          0          0
  setppc           :       0.01       0.00      3          0          0          0          0          0          0          0          0          0
  linear           :       0.03       0.00      5          0          0          0          0          0          4          0          0          0
  logicor          :       0.00       0.00      0          0          0          0          0          0          0          0          0          0
  benders          :       0.00       0.00      0          0          0          0          0          0          0          0          0          0
  components       :       0.00       0.00      1          0          0          0          0          0          0          0          0          0
  root node        :          -          -      -          0          -          -          0          -          -          -          -          -
Constraints        :     Number  MaxNumber  #Separate #Propagate    #EnfoLP    #EnfoRelax  #EnfoPS    #Check   #ResProp    Cutoffs    DomReds       Cuts    Applied      Conss   Children
  benderslp        :          0          0          0          0         77          0          0         29          0          0          0          0          0          0          0
  integral         :          0          0          0          0         77          0          0         29          0          0          0          0          0          0        152
  setppc           :        474        474          9      21315          1          0          0         24      12638          6       6877          0          0          0          0
  linear           :          1          1          9      21309          1          0          0         12         10          9          0          0          0          0          0
  logicor          :          0+         9          9         56          0          0          0          0          0          0          0          0          0          0          0
  benders          :          0          0          0          0          1          0          0          1          0          0          0          0          0          0          0
  countsols        :          0          0          0          0          1          0          0          1          0          0          0          0          0          0          0
  components       :          0          0          0          0          0          0          0          0          0          0          0          0          0          0          0
Constraint Timings :  TotalTime  SetupTime   Separate  Propagate     EnfoLP     EnfoPS     EnfoRelax   Check    ResProp    SB-Prop
  benderslp        :       0.00       0.00       0.00       0.00       0.00       0.00       0.00       0.00       0.00       0.00
  integral         :       2.21       0.00       0.00       0.00       2.21       0.00       0.00       0.00       0.00       0.00
  setppc           :       0.27       0.00       0.00       0.24       0.00       0.00       0.00       0.01       0.00       0.02
  linear           :       0.04       0.00       0.00       0.02       0.00       0.00       0.00       0.00       0.01       0.00
  logicor          :       0.00       0.00       0.00       0.00       0.00       0.00       0.00       0.00       0.00       0.00
  benders          :       0.00       0.00       0.00       0.00       0.00       0.00       0.00       0.00       0.00       0.00
  countsols        :       0.00       0.00       0.00       0.00       0.00       0.00       0.00       0.00       0.00       0.00
  components       :       0.00       0.00       0.00       0.00       0.00       0.00       0.00       0.00       0.00       0.00
Propagators        : #Propagate   #ResProp    Cutoffs    DomReds
  dualfix          :          1          0          0          0
  genvbounds       :          0          0          0          0
  nlobbt           :          0          0          0          0
  obbt             :          0          0          0          0
  probing          :          0          0          0          0
  pseudoobj        :          0          0          0          0
  redcost          :          0          0          0          0
  rootredcost      :          0          0          0          0
  symmetry         :          0          0          0          0
  vbounds          :        875          0          0          0
Propagator Timings :  TotalTime  SetupTime   Presolve  Propagate    ResProp    SB-Prop
  dualfix          :       0.00       0.00       0.00       0.00       0.00       0.00
  genvbounds       :       0.00       0.00       0.00       0.00       0.00       0.00
  nlobbt           :       0.00       0.00       0.00       0.00       0.00       0.00
  obbt             :       0.00       0.00       0.00       0.00       0.00       0.00
  probing          :       0.03       0.00       0.03       0.00       0.00       0.00
  pseudoobj        :       0.00       0.00       0.00       0.00       0.00       0.00
  redcost          :       0.00       0.00       0.00       0.00       0.00       0.00
  rootredcost      :       0.00       0.00       0.00       0.00       0.00       0.00
  symmetry         :       0.00       0.00       0.00       0.00       0.00       0.00
  vbounds          :       0.00       0.00       0.00       0.00       0.00       0.00
Conflict Analysis  :       Time      Calls    Success    DomReds  Conflicts   Literals    Reconvs ReconvLits   Dualrays   Nonzeros   LP Iters   (pool size: [10000,10000])
  propagation      :       0.15          5          5          -        125     4445.7          0        0.0          -          -          -
  infeasible LP    :       0.04          6          0          -          0        0.0          0        0.0          0        0.0          0
  bound exceed. LP :       0.00          0          0          -          0        0.0          0        0.0          0        0.0          0
  strong branching :       0.00          0          0          -          0        0.0          0        0.0          -          -          0
  pseudo solution  :       0.00          1          1          -          1        0.0          0        0.0          -          -          -
  applied globally :       0.00          -          -          0          8      410.8          -          -          0          -          -
  applied locally  :          -          -          -          0          3     6320.0          -          -          0          -          -
Separators         :   ExecTime  SetupTime      Calls  RootCalls    Cutoffs    DomReds  FoundCuts ViaPoolAdd  DirectAdd    Applied ViaPoolApp  DirectApp      Conss
  cut pool         :       0.00          -         33         19          -          -         29         18          -          -          -          -          -    (maximal pool size:         29)
  aggregation      :       0.10       0.00         17          9          0          0          0          0          0          0          0          0          0
  > cmir           :          -          -          -          -          -          -          -          0          0          0          0          0          -
  > flowcover      :          -          -          -          -          -          -          -          0          0          0          0          0          -
  > knapsackcover  :          -          -          -          -          -          -          -          0          0          0          0          0          -
  cgmip            :       0.00       0.00          0          0          0          0          0          0          0          0          0          0          0
  clique           :       0.05       0.00          9          9          0          0         17         10          0          9          9          0          0
  closecuts        :       0.00       0.00          0          0          0          0          0          0          0          0          0          0          0
  convexproj       :       0.00       0.00          0          0          0          0          0          0          0          0          0          0          0
  disjunctive      :       0.00       0.00          0          0          0          0          0          0          0          0          0          0          0
  eccuts           :       0.00       0.00          0          0          0          0          0          0          0          0          0          0          0
  gauge            :       0.00       0.00          0          0          0          0          0          0          0          0          0          0          0
  gomory           :       0.07       0.00         17          9          0          0          5          3          2          2          1          1          0
  > gomorymi       :          -          -          -          -          -          -          -          0          1          1          0          1          -
  > strongcg       :          -          -          -          -          -          -          -          3          1          1          1          0          -
  impliedbounds    :       0.00       0.00         17          9          0          0          0          0          0          0          0          0          0
  interminor       :       0.00       0.00          0          0          0          0          0          0          0          0          0          0          0
  intobj           :       0.00       0.00          0          0          0          0          0          0          0          0          0          0          0
  mcf              :       0.00       0.00          1          1          0          0          0          0          0          0          0          0          0
  minor            :       0.00       0.00          0          0          0          0          0          0          0          0          0          0          0
  mixing           :       0.00       0.00          0          0          0          0          0          0          0          0          0          0          0
  oddcycle         :       0.00       0.00          0          0          0          0          0          0          0          0          0          0          0
  rapidlearning    :       0.23       0.00          3          1          0          0          0          0          0          0          0          0          0
  rlt              :       0.00       0.00          9          9          0          0          0          0          0          0          0          0          0
  zerohalf         :       0.10       0.00         17          9          0          0         29          5         20         22          4         18          0
Cutselectors       :   ExecTime  SetupTime      Calls  RootCalls   Selected     Forced   Filtered  RootSelec   RootForc   RootFilt 
  hybrid           :       0.00       0.00         17          9         33          0          7         13          0          3
Pricers            :   ExecTime  SetupTime      Calls       Vars
  problem variables:       0.00          -          0          0
Branching Rules    :   ExecTime  SetupTime   BranchLP  BranchExt   BranchPS    Cutoffs    DomReds       Cuts      Conss   Children
  allfullstrong    :       0.00       0.00          0          0          0          0          0          0          0          0
  cloud            :       0.00       0.00          0          0          0          0          0          0          0          0
  distribution     :       0.00       0.00          0          0          0          0          0          0          0          0
  fullstrong       :       0.00       0.00          0          0          0          0          0          0          0          0
  inference        :       0.00       0.00          0          0          0          0          0          0          0          0
  leastinf         :       0.00       0.00          0          0          0          0          0          0          0          0
  lookahead        :       0.00       0.00          0          0          0          0          0          0          0          0
  mostinf          :       0.00       0.00          0          0          0          0          0          0          0          0
  multaggr         :       0.00       0.00          0          0          0          0          0          0          0          0
  nodereopt        :       0.00       0.00          0          0          0          0          0          0          0          0
  pscost           :       0.00       0.00          0          0          0          0          0          0          0          0
  random           :       0.00       0.00          0          0          0          0          0          0          0          0
  relpscost        :       2.21       0.00         76          0          0          0          0          0          0        152
  vanillafullstrong:       0.00       0.00          0          0          0          0          0          0          0          0
Primal Heuristics  :   ExecTime  SetupTime      Calls      Found       Best
  LP solutions     :       0.00          -          -          1          1
  relax solutions  :       0.00          -          -          0          0
  pseudo solutions :       0.00          -          -          0          0
  strong branching :       0.00          -          -          0          0
  actconsdiving    :       0.00       0.00          0          0          0
  adaptivediving   :       0.02       0.00          1          0          0
  alns             :       3.42       0.00          3          0          0
  bound            :       0.00       0.00          0          0          0
  clique           :       0.02       0.00          1          0          0
  coefdiving       :       0.00       0.00          0          0          0
  completesol      :       0.00       0.00          0          0          0
  conflictdiving   :       0.34       0.00          1          0          0
  crossover        :       0.00       0.00          0          0          0
  dins             :       0.00       0.00          0          0          0
  distributiondivin:       0.00       0.00          0          0          0
  dps              :       0.00       0.00          0          0          0
  dualval          :       0.00       0.00          0          0          0
  farkasdiving     :       0.00       0.00          0          0          0
  feaspump         :       0.58       0.00          1          0          0
  fixandinfer      :       0.00       0.00          0          0          0
  fracdiving       :       0.02       0.00          1          0          0
  gins             :       0.00       0.00          0          0          0
  guideddiving     :       0.00       0.00          0          0          0
  indicator        :       0.00       0.00          0          0          0
  intdiving        :       0.00       0.00          0          0          0
  intshifting      :       0.00       0.00          0          0          0
  linesearchdiving :       0.00       0.00          0          0          0
  localbranching   :       0.00       0.00          0          0          0
  locks            :       0.05       0.00          1          0          0
  lpface           :       0.00       0.00          0          0          0
  mpec             :       0.00       0.00          0          0          0
  multistart       :       0.00       0.00          0          0          0
  mutation         :       0.00       0.00          0          0          0
  nlpdiving        :       0.00       0.00          0          0          0
  objpscostdiving  :       0.00       0.00          0          0          0
  octane           :       0.00       0.00          0          0          0
  ofins            :       0.00       0.00          0          0          0
  oneopt           :       0.00       0.00          0          0          0
  padm             :       0.00       0.00          0          0          0
  proximity        :       0.00       0.00          0          0          0
  pscostdiving     :       0.04       0.00          1          0          0
  randrounding     :       0.11       0.00         21          0          0
  rens             :       0.08       0.00          1          0          0
  reoptsols        :       0.00       0.00          0          0          0
  repair           :       0.00       0.00          0          0          0
  rins             :       0.00       0.00          0          0          0
  rootsoldiving    :       0.00       0.00          0          0          0
  rounding         :       0.49       0.00         93          0          0
  shiftandpropagate:       0.06       0.00          1          0          0
  shifting         :       0.39       0.00         26          0          0
  simplerounding   :       0.00       0.00          0          0          0
  subnlp           :       0.00       0.00          0          0          0
  trivial          :       0.01       0.00          2          0          0
  trivialnegation  :       0.00       0.00          0          0          0
  trustregion      :       0.00       0.00          0          0          0
  trysol           :       0.00       0.00          0          0          0
  twoopt           :       0.00       0.00          0          0          0
  undercover       :       0.00       0.00          0          0          0
  vbounds          :       0.14       0.00          1          0          0
  veclendiving     :       0.00       0.00          0          0          0
  zeroobj          :       0.00       0.00          0          0          0
  zirounding       :       0.01       0.00         76          0          0
  other solutions  :          -          -          -          0          -
LP                 :       Time      Calls Iterations  Iter/call   Iter/sec  Time-0-It Calls-0-It    ItLimit
  primal LP        :       0.06          5          0       0.00       0.00       0.06          5
  dual LP          :       0.50         95       6729      70.83   13499.74       0.00          0
  lex dual LP      :       0.00          0          0       0.00          -
  barrier LP       :       0.00          0          0       0.00          -       0.00          0
  resolve instable :       0.00          0          0       0.00          -
  diving/probing LP:       0.87         34       9156     269.29   10560.74
  strong branching :       2.07         63      17436     276.76    8433.38          -          -          1
    (at root node) :          -         63      17436     276.76          -
  conflict analysis:       0.00          0          0       0.00          -
B&B Tree           :
  number of runs   :          1
  nodes            :         78 (76 internal, 2 leaves)
  feasible leaves  :          1
  infeas. leaves   :          1
  objective leaves :          0
  nodes (total)    :         78 (76 internal, 2 leaves)
  nodes left       :          0
  max depth        :         64
  max depth (total):         64
  backtracks       :          3 (3.8%)
  early backtracks :          0 (0.0%)
  nodes exc. ref.  :          0 (0.0%)
  delayed cutoffs  :          0
  repropagations   :          0 (0 domain reductions, 0 cutoffs)
  avg switch length:       2.18
  switching time   :       0.07
Root Node          :
  First LP value   : -8.00000000000000e+01
  First LP Iters   :        141 (5516.65 Iter/sec)
  First LP Time    :       0.03
  Final Dual Bound : -8.00000000000000e+01
  Final Root Iters :       5442
  Root LP Estimate : -7.99940174958604e+01
Solution           :
  Solutions found  :          1 (1 improvements)
  First Solution   : -8.00000000000000e+01   (in run 1, after 78 nodes, 9.31 seconds, depth 64, found by <relaxation>)
  Gap First Sol.   :       0.00 %
  Gap Last Sol.    :       0.00 %
  Primal Bound     : -8.00000000000000e+01   (in run 1, after 78 nodes, 9.31 seconds, depth 64, found by <relaxation>)
  Dual Bound       : -8.00000000000000e+01
  Gap              :       0.00 %
Integrals          :      Total       Avg%
  primal-dual      :     931.49      99.94
  primal-ref       :          -          - (not evaluated)
  dual-ref         :          -          - (not evaluated)
written solution information to file <results/final_miplib_symretope_if_extended_generating_set_cpx_v802__settings_final_nosym_norestarts__0__neos-777800.mps.gz.sol>
@04 1686649163
